10
0   24   9   75   63   72   63   60   89   24   
24   0   40   58   12   6   49   55   55   96   
9   40   0   94   29   54   37   76   25   6   
75   58   94   0   77   57   20   49   24   0   
63   12   29   77   0   78   63   96   96   64   
72   6   54   57   78   0   42   3   76   22   
63   49   37   20   63   42   0   96   98   67   
60   55   76   49   96   3   96   0   88   43   
89   55   25   24   96   76   98   88   0   73   
24   96   6   0   64   22   67   43   73   0   
0   79   46   60   37   53   45   3   5   78   
91   0   3   47   32   29   91   74   96   0   
58   64   0   43   33   19   69   86   78   28   
53   16   19   0   15   85   93   4   72   81   
32   87   71   48   0   22   69   12   82   92   
97   56   53   9   54   0   11   74   98   48   
8   78   58   95   71   97   0   25   60   70   
5   0   63   42   35   47   44   0   3   23   
42   79   56   2   13   80   29   1   0   72   
29   77   57   58   54   0   30   3   4   0   
